c 39 Maven
c 54 AngularJS
c 10 Server
c 47 PostgreSQL
c 22 False
c 18 Consul
c 53 MessageBroker
c 40 SearchEngine
c 34 MySql
c 5 MySQL
c 43 Client
c 7 EhCache
c 4 AuthenticationType
c 13 ServerSideOption
c 59 LibSass
c 8 HibernateCache
c 56 JWT
c 31 HTTPSession
c 9 SwaggerCodegen
c 16 SQL
c 24 ApplicationType
c 49 Angular4
c 3 Uaa
c 55 Oracle12c
c 23 MicroserviceApplication
c 44 NoDB
c 27 MongoDB
c 42 ClientFrameWork
c 25 MariaDBDev
c 1 Cucumber
c 51 Application
c 35 NoHB
c 33 H2InMemory
c 29 Gatling
c 21 Cassandra
c 52 SocialLogIn
c 50 Oauth2
c 28 H2DiskBased
c 6 ProDataBaseType
c 38 ClusteredHttpSession
c 57 MsSQL
c 30 MsSql
c 11 Oracle
c 17 DataBaseType
c 58 jhipster
c 19 ServiceDiscoveryType
c 41 MicroserviceGateway
c 20 MariaDB
c 48 Monolithic
c 60 WebSocket
c 12 DevDataBaseType
c 36 HazelCast
c 2 TestFramework
c 45 UaaServer
c 15 BuildTool
c 37 Protractor
c 46 PostgreSQLDev
c 14 Gradle
c 26 Infinispan
c 32 Eureka
p cnf 61 666
-1 2 0
-3 4 0
-5 6 0
-7 8 0
-9 10 0
-11 6 0
-12 13 0
-14 15 0
-16 17 0
-18 19 0
-20 6 0
-12 13 0
-16 17 0
-21 17 0
-22 19 0
-23 24 0
-21 17 0
-25 12 0
-26 8 0
-27 17 0
-6 13 0
-21 17 0
-28 12 0
-22 19 0
-14 15 0
-14 15 0
-29 2 0
-22 19 0
-3 4 0
-15 13 0
-30 12 0
-31 4 0
-32 19 0
-15 13 0
-3 4 0
-31 4 0
-14 15 0
-33 12 0
-34 12 0
-35 8 0
-36 8 0
-15 13 0
-37 2 0
-3 4 0
-38 10 0
-8 13 0
-38 10 0
-18 19 0
-39 15 0
-16 17 0
-31 4 0
-18 19 0
-32 19 0
-40 10 0
-33 12 0
-41 24 0
-22 19 0
-42 43 0
-35 8 0
-14 15 0
-7 8 0
-36 8 0
-5 6 0
-25 12 0
-7 8 0
-8 13 0
-44 17 0
-30 12 0
-45 24 0
-22 19 0
-45 24 0
-46 12 0
-32 19 0
-15 13 0
-27 17 0
-18 19 0
-47 6 0
-33 12 0
-39 15 0
-29 2 0
-22 19 0
-48 24 0
-1 2 0
-21 17 0
-49 42 0
-13 10 0
-50 4 0
-2 51 0
-39 15 0
-28 12 0
-47 6 0
-33 12 0
-39 15 0
-5 6 0
-36 8 0
-21 17 0
-16 17 0
-4 13 0
-21 17 0
-48 24 0
-52 10 0
-50 4 0
-48 24 0
-22 19 0
-27 17 0
-14 15 0
-39 15 0
-32 19 0
-50 4 0
-40 10 0
-36 8 0
-53 10 0
-16 17 0
-37 2 0
-3 4 0
-16 17 0
-1 2 0
-36 8 0
-54 42 0
-45 24 0
-1 2 0
-17 13 0
-22 19 0
-55 12 0
-17 13 0
-41 24 0
-18 19 0
-11 6 0
-50 4 0
-37 2 0
-32 19 0
-16 17 0
-16 17 0
-35 8 0
-27 17 0
-39 15 0
-44 17 0
-25 12 0
-41 24 0
-25 12 0
-56 4 0
-8 13 0
-38 10 0
-36 8 0
-56 4 0
-46 12 0
-32 19 0
-27 17 0
-35 8 0
-56 4 0
-34 12 0
-57 6 0
-1 2 0
-7 8 0
-27 17 0
-45 24 0
-36 8 0
-39 15 0
-5 6 0
-36 8 0
-39 15 0
-35 8 0
-53 10 0
-47 6 0
-14 15 0
-52 10 0
-32 19 0
-14 15 0
-27 17 0
-39 15 0
-4 13 0
-27 17 0
-34 12 0
-8 13 0
-33 12 0
-17 13 0
-32 19 0
-18 19 0
-43 58 0
-41 24 0
-35 8 0
-22 19 0
-56 4 0
-34 12 0
-16 17 0
-21 17 0
-32 19 0
-37 2 0
-19 13 0
-50 4 0
-18 19 0
-27 17 0
-18 19 0
-40 10 0
-44 17 0
-50 4 0
-51 58 0
-47 6 0
-33 12 0
-37 2 0
-31 4 0
-7 8 0
-11 6 0
-17 13 0
-46 12 0
-12 13 0
-26 8 0
-2 51 0
-8 13 0
-57 6 0
-49 42 0
-24 51 0
-56 4 0
-31 4 0
-56 4 0
-50 4 0
-25 12 0
-1 2 0
-10 58 0
-25 12 0
-13 10 0
-50 4 0
-56 4 0
-44 17 0
-14 15 0
-47 6 0
-30 12 0
-32 19 0
-50 4 0
-23 24 0
-26 8 0
-19 13 0
-6 13 0
-20 6 0
-54 42 0
-35 8 0
-59 43 0
-30 12 0
-15 13 0
-3 4 0
-34 12 0
-4 13 0
-4 13 0
-13 10 0
-36 8 0
-22 19 0
-9 10 0
-39 15 0
-30 12 0
-11 6 0
-12 13 0
-43 58 0
-23 24 0
-35 8 0
-13 10 0
-53 10 0
-40 10 0
-11 6 0
-21 17 0
-3 4 0
-55 12 0
-23 24 0
-42 43 0
-31 4 0
-2 51 0
-7 8 0
-14 15 0
-12 13 0
-18 19 0
-45 24 0
-7 8 0
-46 12 0
-14 15 0
-26 8 0
-14 15 0
-35 8 0
-55 12 0
-7 8 0
-4 13 0
-11 6 0
-56 4 0
-55 12 0
-19 13 0
-8 13 0
-18 19 0
-54 42 0
-56 4 0
-36 8 0
-20 6 0
-24 51 0
-31 4 0
-16 17 0
-26 8 0
-35 8 0
-41 24 0
-31 4 0
-56 4 0
-16 17 0
-27 17 0
-56 4 0
-48 24 0
-32 19 0
-60 10 0
-27 17 0
-39 15 0
-21 17 0
-57 6 0
-52 10 0
-15 13 0
-57 6 0
-39 15 0
-28 12 0
-50 4 0
-22 19 0
-19 13 0
-51 58 0
-31 4 0
-7 8 0
-30 12 0
-27 17 0
-59 43 0
-3 4 0
-26 8 0
-22 19 0
-11 6 0
-20 6 0
-21 17 0
-7 8 0
-46 12 0
-7 8 0
-5 6 0
-19 13 0
-2 51 0
-41 24 0
-39 15 0
-3 4 0
-48 24 0
-39 15 0
-18 19 0
-26 8 0
-14 15 0
-35 8 0
-44 17 0
-14 15 0
-46 12 0
-27 17 0
-36 8 0
-3 4 0
-53 10 0
-21 17 0
-31 4 0
-32 19 0
-4 13 0
-6 13 0
-27 17 0
-24 51 0
-44 17 0
-14 15 0
-32 19 0
-5 6 0
-20 6 0
-24 51 0
-54 42 0
-36 8 0
-15 13 0
-20 6 0
-26 8 0
-12 13 0
-39 15 0
-50 4 0
-27 17 0
-21 17 0
-26 8 0
-60 10 0
-23 24 0
-45 24 0
-5 6 0
-6 13 0
-36 8 0
-22 19 0
-50 4 0
-28 12 0
-52 10 0
-6 13 0
-31 4 0
-18 19 0
-35 8 0
-16 17 0
-32 19 0
-1 2 0
-47 6 0
-7 8 0
-44 17 0
-29 2 0
-23 24 0
-16 17 0
-16 17 0
-16 17 0
-29 2 0
-19 13 0
-32 19 0
-21 17 0
-36 8 0
-28 12 0
-31 4 0
-29 2 0
-35 8 0
-44 17 0
-26 8 0
-35 8 0
-17 13 0
-26 8 0
-19 13 0
-5 6 0
-9 10 0
-6 13 0
-3 4 0
-33 12 0
-34 12 0
-36 8 0
-17 13 0
-35 8 0
-37 2 0
-41 24 0
-21 17 0
-44 17 0
-18 19 0
-32 19 0
-46 12 0
-50 4 0
-15 13 0
-50 4 0
-12 13 0
-44 17 0
-7 8 0
-56 4 0
-7 8 0
-23 24 0
-19 13 0
-29 2 0
-3 4 0
-4 13 0
-20 6 0
-26 8 0
-22 19 0
-48 24 0
-55 12 0
-55 12 0
-26 8 0
-56 4 0
-9 10 0
-18 19 0
-47 6 0
-25 12 0
-23 24 0
-45 24 0
-14 15 0
-28 12 0
-16 17 0
-1 2 0
-22 19 0
-26 8 0
-31 4 0
-39 15 0
-37 2 0
-26 8 0
-7 8 0
-44 17 0
-3 4 0
-25 12 0
-18 19 0
-20 6 0
-6 13 0
-18 19 0
-45 24 0
-34 12 0
-56 4 0
-12 13 0
-38 10 0
-29 2 0
-10 58 0
-31 4 0
-3 4 0
-44 17 0
-36 8 0
-3 4 0
-57 6 0
-6 13 0
-57 6 0
-8 13 0
-48 24 0
-50 4 0
-33 12 0
-3 4 0
-11 6 0
-55 12 0
-37 2 0
-8 13 0
-28 12 0
-47 6 0
-34 12 0
-57 6 0
-27 17 0
-50 4 0
-56 4 0
-28 12 0
-21 17 0
-21 17 0
-60 10 0
-41 24 0
-30 12 0
-48 24 0
-49 42 0
-17 13 0
-17 13 0
-49 42 0
-44 17 0
-44 17 0
-44 17 0
-30 12 0
-55 12 0
-7 8 0
-22 19 0
-44 17 0
-60 10 0
-35 8 0
-57 6 0
-29 2 0
-4 13 0
-46 12 0
-31 4 0
-26 8 0
-31 4 0
-56 4 0
58 0
-13 8 0
-13 19 0
-24 41 48 23 45 0
-48 -45 0
-23 -45 0
-41 -45 0
-48 -23 0
-41 -48 0
-41 -23 0
-6 5 57 11 20 47 0
-11 -47 0
-5 -20 0
-5 -57 0
-57 -11 0
-57 -47 0
-20 -47 0
-5 -11 0
-11 -20 0
-5 -47 0
-57 -20 0
-58 51 0
-13 15 0
-43 42 0
-42 54 49 0
-54 -49 0
-10 13 0
-4 31 3 50 56 0
-31 -50 0
-31 -56 0
-50 -56 0
-3 -50 0
-3 -56 0
-31 -3 0
61 58 0
-13 4 0
-17 16 44 21 27 0
-44 -27 0
-21 -27 0
-16 -21 0
-16 -44 0
-16 -27 0
-44 -21 0
-19 18 32 22 0
-18 -22 0
-18 -32 0
-32 -22 0
-12 55 33 46 25 30 34 28 0
-55 -34 0
-55 -33 0
-33 -25 0
-46 -30 0
-46 -34 0
-33 -46 0
-33 -34 0
-30 -28 0
-46 -25 0
-55 -25 0
-34 -28 0
-46 -28 0
-55 -46 0
-25 -30 0
-25 -34 0
-55 -28 0
-55 -30 0
-25 -28 0
-33 -28 0
-30 -34 0
-33 -30 0
-15 14 39 0
-14 -39 0
-51 24 0
-13 17 0
-58 10 0
-8 26 35 36 7 0
-26 -36 0
-35 -36 0
-36 -7 0
-26 -35 0
-26 -7 0
-35 -7 0
-51 2 0
-11 0
-16 -11 28 33 55 0
-48 -3 0
-16 -5 28 33 34 0
-27 41 35 0
-21 41 35 0
-44 35 0
-55 0
-45 3 0
23 3 -44 0
23 41 -44 0
-48 22 32 0
16 -40 0
-16 -57 28 33 30 0
-16 -20 28 33 25 0
-41 36 0
-16 6 0
-50 16 27 0
-23 -43 0
-23 1 0
-23 29 0
-23 -37 0
-45 -43 0
-45 1 0
-45 29 0
-45 -37 0
-16 -47 28 33 46 0
-21 -52 0
48 -52 0
31 56 -52 0
-41 56 3 0
-23 56 3 0
-27 -12 0
-27 -6 0
-21 -12 0
-21 -6 0
-44 -12 0
-44 -6 0
48 41 -38 0
35 36 -38 0
-32 3 56 0
-48 43 0
-48 1 0
-48 37 0
-48 29 0
-41 43 0
-41 1 0
-41 37 0
-41 29 0
48 41 -60 0
